c read Graph
c width = 71
c time = 373 ms
c width = 9
c time = 501 ms
c width = 8
c time = 579 ms
c width = 7
c time = 1970 ms
c width = 7
c time = 3817 ms
s td 76 8 84
b 1 1 2 13
b 2 2 3 13 14
b 3 10 11 23 24
b 4 3 13 14 25
b 5 10 23 24 36
b 6 49 61 62 74
b 7 60 71 72 83
b 8 49 62 74 75
b 9 60 71 82 83
b 10 3 4 14 15 25
b 11 4 5 14 15 16 25
b 12 5 7 14 15 16 17 18 25
b 13 7 14 15 16 17 18 25 26
b 14 7 15 16 17 18 25 26 27
b 15 7 16 17 18 25 26 27 28
b 16 7 17 18 25 26 27 28 29
b 17 7 18 25 26 27 28 29 37
b 18 7 18 26 27 28 29 37 38
b 19 7 18 27 28 29 37 38 39
b 20 7 18 28 29 37 38 39 40
b 21 7 18 29 37 38 39 40 49
b 22 7 18 29 38 39 40 49 50
b 23 7 18 29 39 40 49 50 51
b 24 7 18 29 40 49 50 51 62
b 25 7 18 29 40 49 51 62 75
b 26 7 18 29 40 51 62 63 75
b 27 7 18 29 40 51 52 63 75
b 28 7 18 29 40 41 52 63 75
b 29 7 18 29 30 41 52 63 75
b 30 7 18 30 41 52 63 64 75
b 31 7 18 30 41 52 53 64 75
b 32 7 18 30 41 42 53 64 75
b 33 7 18 30 31 42 53 64 75
b 34 7 18 20 31 42 53 64 75
b 35 7 9 20 31 42 53 64 75
b 36 9 20 31 42 53 64 75 76
b 37 9 20 31 42 53 64 65 76
b 38 9 20 31 42 53 54 65 76
b 39 9 20 31 42 43 54 65 76
b 40 9 20 31 32 43 54 65 76
b 41 9 20 32 43 54 65 76 77
b 42 9 20 32 43 54 65 66 77
b 43 9 20 32 43 54 55 66 77
b 44 9 20 32 43 44 55 66 77
b 45 9 20 32 33 44 55 66 77
b 46 9 20 22 33 44 55 66 77
b 47 9 22 33 44 55 66 77 78
b 48 9 22 33 44 55 66 67 78
b 49 9 22 33 44 55 56 67 78
b 50 9 22 33 44 56 67 78 79
b 51 9 22 33 44 56 67 68 79
b 52 9 22 33 44 56 57 68 79
b 53 9 22 33 44 46 57 68 79
b 54 9 22 33 35 46 57 68 79
b 55 9 22 35 46 48 57 68 79
b 56 35 46 48 57 59 68 79
b 57 46 48 57 58 59 68 79
b 58 48 57 58 59 68 70 79 80
b 59 33 44 45 46 57
b 60 7 8 9 20
b 61 5 6 7 18
b 62 7 18 19 20 31
b 63 9 22 35 36 48
b 64 9 10 22 35 36
b 65 10 22 23 35 36
b 66 9 20 21 22 33
b 67 22 33 34 35 46
b 68 35 46 47 48 59
b 69 48 57 59 68 70 80 82
b 70 57 68 69 70 80 82
b 71 69 80 81 82
b 72 48 59 60 70 82
b 73 59 60 70 71 82
b 74 72 83 84
b 75 61 73 74
b 76 11 12 24
1 2
2 4
3 76
3 5
4 10
5 65
6 75
6 8
7 74
7 9
8 25
9 73
10 11
11 12
12 61
12 13
13 14
14 15
15 16
16 17
17 18
18 19
19 20
20 21
21 22
22 23
23 24
24 25
25 26
26 27
27 28
28 29
29 30
30 31
31 32
32 33
33 34
34 62
34 35
35 60
35 36
36 37
37 38
38 39
39 40
40 41
41 42
42 43
43 44
44 45
45 46
46 66
46 47
47 48
48 49
49 50
50 51
51 52
52 53
53 59
53 54
54 67
54 55
55 63
55 56
56 68
56 57
57 58
58 69
63 64
64 65
69 72
69 70
70 71
72 73
